Set parameter Username
Academic license - for non-commercial use only - expires 2024-02-22
Warning: Gurobi version mismatch between Python 9.5.0 and C library 9.5.2
Set parameter TimeLimit to value 3600
Set parameter MIPGap to value 1e-06
Set parameter Threads to value 1
Gurobi Optimizer version 9.5.2 build v9.5.2rc0 (linux64)
Thread count: 4 physical cores, 4 logical processors, using up to 1 threads
Optimize a model with 4446 rows, 4342 columns and 18122 nonzeros
Model fingerprint: 0x2e6b5beb
Variable types: 4238 continuous, 104 integer (104 binary)
Coefficient statistics:
  Matrix range     [1e+00, 1e+02]
  Objective range  [8e-01, 2e+03]
  Bounds range     [1e+00, 1e+00]
  RHS range        [2e+01, 2e+02]
Presolve removed 129 rows and 76 columns
Presolve time: 0.03s
Presolved: 4317 rows, 4266 columns, 16715 nonzeros
Variable types: 4163 continuous, 103 integer (103 binary)
Found heuristic solution: objective 114400.00000

Root relaxation: objective 1.796129e+04, 5436 iterations, 0.22 seconds (0.25 work units)

    Nodes    |    Current Node    |     Objective Bounds      |     Work
 Expl Unexpl |  Obj  Depth IntInf | Incumbent    BestBd   Gap | It/Node Time

     0     0 17961.2913    0   63 114400.000 17961.2913  84.3%     -    0s
H    0     0                    45832.917867 17961.2913  60.8%     -    0s
H    0     0                    45140.274277 17961.2913  60.2%     -    0s
     0     0 18745.4005    0   54 45140.2743 18745.4005  58.5%     -    0s
H    0     0                    39249.074424 18745.4005  52.2%     -    0s
     0     0 18839.5088    0   53 39249.0744 18839.5088  52.0%     -    0s
     0     0 18840.9837    0   53 39249.0744 18840.9837  52.0%     -    0s
     0     0 21242.6792    0   51 39249.0744 21242.6792  45.9%     -    0s
H    0     0                    30830.174575 21242.6792  31.1%     -    0s
     0     0 21257.1744    0   50 30830.1746 21257.1744  31.1%     -    0s
     0     0 21257.1864    0   50 30830.1746 21257.1864  31.1%     -    0s
     0     0 21873.0020    0   45 30830.1746 21873.0020  29.1%     -    0s
H    0     0                    30038.937699 21873.0020  27.2%     -    0s
H    0     0                    22730.600000 21873.0020  3.77%     -    0s
     0     0 22116.4045    0   44 22730.6000 22116.4045  2.70%     -    0s
     0     0 22160.8321    0   44 22730.6000 22160.8321  2.51%     -    0s
     0     0 22162.4330    0   44 22730.6000 22162.4330  2.50%     -    0s
     0     0 22281.4444    0   40 22730.6000 22281.4444  1.98%     -    0s
H    0     0                    22639.600000 22281.4444  1.58%     -    0s
     0     0 22283.1239    0   40 22639.6000 22283.1239  1.57%     -    0s
     0     0 22283.1488    0   40 22639.6000 22283.1488  1.57%     -    0s
     0     0 22379.7630    0   44 22639.6000 22379.7630  1.15%     -    0s
     0     0 22379.7630    0   56 22639.6000 22379.7630  1.15%     -    0s
     0     0 22379.7630    0   50 22639.6000 22379.7630  1.15%     -    0s
     0     0 22379.7630    0   44 22639.6000 22379.7630  1.15%     -    0s
     0     0 22379.7630    0   45 22639.6000 22379.7630  1.15%     -    0s
     0     0 22379.7630    0   44 22639.6000 22379.7630  1.15%     -    0s
     0     0 22394.7095    0   44 22639.6000 22394.7095  1.08%     -    0s
     0     0 22455.4572    0   37 22639.6000 22455.4572  0.81%     -    0s
     0     0 22456.0718    0   38 22639.6000 22456.0718  0.81%     -    0s
     0     0 22481.5763    0   40 22639.6000 22481.5763  0.70%     -    1s
     0     0 22481.7926    0   40 22639.6000 22481.7926  0.70%     -    1s
     0     0 22502.1492    0   44 22639.6000 22502.1492  0.61%     -    1s
     0     0 22502.3089    0   42 22639.6000 22502.3089  0.61%     -    1s
     0     0 22502.3089    0   42 22639.6000 22502.3089  0.61%     -    1s
     0     0 22502.3089    0   51 22639.6000 22502.3089  0.61%     -    1s
     0     0 22502.3089    0   46 22639.6000 22502.3089  0.61%     -    1s
     0     0 22502.3089    0   30 22639.6000 22502.3089  0.61%     -    1s
     0     0 22507.0254    0   32 22639.6000 22507.0254  0.59%     -    1s
     0     0 22507.3094    0   34 22639.6000 22507.3094  0.58%     -    1s
     0     0 22527.7965    0   40 22639.6000 22527.7965  0.49%     -    1s
     0     0 22530.5418    0   41 22639.6000 22530.5418  0.48%     -    1s
     0     0 22530.9483    0   41 22639.6000 22530.9483  0.48%     -    1s
     0     0 22549.5607    0   38 22639.6000 22549.5607  0.40%     -    1s
     0     0 22552.0503    0   44 22639.6000 22552.0503  0.39%     -    1s
     0     0 22559.7574    0   37 22639.6000 22559.7574  0.35%     -    1s
     0     0 22559.7574    0   37 22639.6000 22559.7574  0.35%     -    1s
H    0     0                    22597.600000 22559.7574  0.17%     -    1s
     0     0 22559.7574    0   48 22597.6000 22559.7574  0.17%     -    1s
     0     0 22559.7574    0   29 22597.6000 22559.7574  0.17%     -    1s
     0     0 22566.3317    0   30 22597.6000 22566.3317  0.14%     -    1s
     0     0 22569.9993    0   28 22597.6000 22569.9993  0.12%     -    1s
     0     0 22569.9993    0   28 22597.6000 22569.9993  0.12%     -    1s
     0     0 22571.9341    0   18 22597.6000 22571.9341  0.11%     -    1s
     0     0 22571.9341    0   18 22597.6000 22571.9341  0.11%     -    1s
     0     0 22576.1961    0   22 22597.6000 22576.1961  0.09%     -    1s
     0     0 22579.9157    0   23 22597.6000 22579.9157  0.08%     -    1s
     0     0 22579.9157    0   23 22597.6000 22579.9157  0.08%     -    1s
     0     2 22582.2064    0   23 22597.6000 22582.2064  0.07%     -    1s
*   12     3               4    22594.600000 22587.7228  0.03%   4.2    1s

Cutting planes:
  MIR: 56
  Flow cover: 15
  Relax-and-lift: 1

Explored 20 nodes (11372 simplex iterations) in 1.55 seconds (1.21 work units)
Thread count was 1 (of 4 available processors)

Solution count 10: 22594.6 22597.6 22639.6 ... 114400

Optimal solution found (tolerance 1.00e-06)
Best objective 2.259460000000e+04, best bound 2.259460000000e+04, gap 0.0000%
Obj: 22594.6
